EA22   24.044 23.442 22.596 90.00 90.00
   1.00000000000000
    24.0443710000000017    0.0000000000000000    0.0000000000000000
     0.0000000000000000   23.4423969999999997    0.0000000000000000
     0.0000000000000000    0.0000000000000000   22.5956970000000013
   Au   Rh
     4     9
Direct
  0.6020486968430546  0.5881702311356674  0.5196222778169863
  0.5498727593714834  0.4443073711896906  0.3785901064281198
  0.3566908994736901  0.4695079486928195  0.5978009367073602
  0.5464098704855149  0.5590153476730012  0.4134487301556514
  0.5849096890995187  0.4745531212566731  0.4885962464808320
  0.4333517539361680  0.5611462503009773  0.4198004406298729
  0.4840406203093632  0.6117686335910727  0.4993433240580393
  0.5142989702660159  0.5259669632258638  0.5520370883166613
  0.4570575820651393  0.4355593851595997  0.5645047740801591
  0.5590846444709828  0.4347139289008511  0.5891993237726215
  0.5263216715070788  0.3865550864103575  0.4925307038603371
  0.4122733467675846  0.5354320529723700  0.5254357699820250
  0.4736394954043993  0.4733056794910572  0.4590912777113387
