EA299  24.746 22.971 22.831 90.00 90.00 90.00 Sym.group:    0
1.0000
   24.745842     0.000000     0.000000
    0.000000    22.970976     0.000000
    0.000000     0.000000    22.830546
  Au  Rh
   6    7
Direct
    0.472145     0.498824     0.358578
    0.531572     0.384231     0.548421
    0.352130     0.500324     0.525844
    0.625158     0.441555     0.511271
    0.531057     0.616696     0.546516
    0.625041     0.559061     0.510375
    0.535175     0.447585     0.444581
    0.438502     0.449092     0.463186
    0.441686     0.554690     0.567937
    0.438742     0.550367     0.462410
    0.441633     0.446129     0.568625
    0.531773     0.500381     0.548539
    0.535386     0.551064     0.443717
